0
Node Left Objective IInf Best_Integer Best_Bound ItCnt Gap
0+ 0 nan nan 17080.7259 -1708.0726 nan 110.00%
0+ 0 nan nan -66.3573 -1708.0726 nan ---
0 0 -93.0816 11 -66.3573 -93.0816 79 40.27%
0+ 0 nan nan -85.7652 -93.0816 nan 8.53%
0 0 -90.9601 13 -85.7652 Cuts:9 97 6.06%
0 0 -90.4516 13 -85.7652 Fract:10 109 5.46%
0 0 -90.1554 13 -85.7652 Cuts:8 123 5.12%
0 0 -90.0284 14 -85.7652 Cuts:5 132 4.97%
0 0 -89.9879 14 -85.7652 Cuts:8 142 4.92%
0 0 -89.9879 14 -85.7652 Fract:1 143 4.92%
0+ 0 nan nan -86.3037 -89.9879 nan 4.27%
0 2 -89.7830 10 -86.3037 -89.6952 143 3.93%
CPXPARAM_MIP_Cuts_FlowCovers-Gomory:FlowCovers 1
CPXPARAM_MIP_Cuts_FlowCovers-Gomory:Gomory 9
1
Node Left Objective IInf Best_Integer Best_Bound ItCnt Gap
0+ 0 nan nan 17807.5550 -1780.7555 nan 110.00%
0+ 0 nan nan -246.6070 -1780.7555 nan 622.10%
0 0 -451.0443 22 -246.6070 -451.0443 124 82.90%
0+ 0 nan nan -437.4023 -451.0443 nan 3.12%
0 0 -450.3580 19 -437.4023 Cuts:15 145 2.96%
0+ 0 nan nan -439.5105 -450.3580 nan 2.47%
0 0 -450.1115 20 -439.5105 Cuts:9 153 2.41%
0 0 -449.8833 19 -439.5105 Cuts:12 169 2.36%
0+ 0 nan nan -441.7063 -449.8833 nan 1.85%
0 0 -449.5027 21 -441.7063 Cuts:8 182 1.77%
0 0 -449.4366 20 -441.7063 Cuts:10 196 1.75%
0 0 -449.4366 20 -441.7063 Fract:1 197 1.75%
0+ 0 nan nan -444.6720 -449.4366 nan 1.07%
0 2 -449.3941 21 -444.6720 -449.3827 197 1.06%
CPXPARAM_MIP_Cuts_FlowCovers-Gomory:FlowCovers 0
CPXPARAM_MIP_Cuts_FlowCovers-Gomory:Gomory 11
2
Node Left Objective IInf Best_Integer Best_Bound ItCnt Gap
0+ 0 nan nan 21992.9672 -2199.2967 nan 110.00%
0+ 0 nan nan -144.9985 -2199.2967 nan ---
0 0 cutoff -144.9985 -144.9985 77 0.00%
0 0 cutoff -144.9985 -144.9985 77 0.00% 0
CPXPARAM_MIP_Cuts_FlowCovers-Gomory:FlowCovers 0
CPXPARAM_MIP_Cuts_FlowCovers-Gomory:Gomory 0
3
Node Left Objective IInf Best_Integer Best_Bound ItCnt Gap
0+ 0 nan nan 15130.5599 -1513.0560 nan 110.00%
0+ 0 nan nan -319.1991 -1513.0560 nan 374.02%
0 0 -373.2689 13 -319.1991 -373.2689 81 16.94%
0+ 0 nan nan -322.8337 -373.2689 nan 15.62%
0 0 -373.2689 11 -322.8337 Fract:4 99 15.62%
0 0 -373.1727 18 -322.8337 Fract:10 112 15.59%
0 0 -373.1190 19 -322.8337 Fract:5 118 15.58%
0 0 -373.0748 19 -322.8337 Fract:3 121 15.56%
0 0 -373.0407 18 -322.8337 Fract:3 127 15.55%
0 0 -373.0177 16 -322.8337 Fract:2 131 15.54%
0+ 0 nan nan -370.4134 -373.0177 nan 0.70%
0 1 -372.6109 6 -370.4134 -372.4768 153 0.56%
CPXPARAM_MIP_Cuts_FlowCovers-Gomory:FlowCovers 0
CPXPARAM_MIP_Cuts_FlowCovers-Gomory:Gomory 13
4
Node Left Objective IInf Best_Integer Best_Bound ItCnt Gap
0+ 0 nan nan 17229.3640 -1722.9364 nan 110.00%
0+ 0 nan nan -67.4145 -1722.9364 nan ---
0 0 -89.1646 11 -67.4145 -89.1646 97 32.26%
0 0 -88.4817 11 -67.4145 Cuts:14 108 31.25%
0+ 0 nan nan -85.5988 -88.4817 nan 3.37%
0 0 -88.3947 10 -85.5988 Cuts:6 114 3.27%
0 0 -88.2540 9 -85.5988 Fract:5 128 3.10%
0 0 -88.2312 8 -85.5988 Fract:1 137 3.08%
0 0 -88.1765 9 -85.5988 Fract:2 144 3.01%
0 0 -88.1765 9 -85.5988 Fract:1 145 3.01%
0 2 -87.8497 4 -85.5988 -87.6966 145 2.45%
CPXPARAM_MIP_Cuts_FlowCovers-Gomory:FlowCovers 0
CPXPARAM_MIP_Cuts_FlowCovers-Gomory:Gomory 7
5
Node Left Objective IInf Best_Integer Best_Bound ItCnt Gap
0+ 0 nan nan 19297.4075 -1929.7408 nan 110.00%
0+ 0 nan nan -216.7443 -1929.7408 nan 790.33%
0 0 -495.8139 18 -216.7443 -495.8139 104 128.76%
0+ 0 nan nan -360.6431 -495.8139 nan 37.48%
0 0 -495.2407 22 -360.6431 Fract:16 123 37.32%
0+ 0 nan nan -363.5780 -495.2407 nan 36.21%
0 0 -495.1495 25 -363.5780 Cuts:12 138 36.19%
0 0 -495.0620 27 -363.5780 Cuts:13 153 36.16%
0 0 -495.0495 27 -363.5780 Cuts:3 157 36.16%
0 0 -495.0394 27 -363.5780 Cuts:3 165 36.16%
0+ 0 nan nan -484.0837 -495.0394 nan 2.26%
0+ 0 nan nan -484.3238 -495.0394 nan 2.21%
0 2 -495.0394 27 -484.3238 -495.0391 165 2.21%
CPXPARAM_MIP_Cuts_FlowCovers-Gomory:FlowCovers 1
CPXPARAM_MIP_Cuts_FlowCovers-Gomory:Gomory 12
6
Node Left Objective IInf Best_Integer Best_Bound ItCnt Gap
0+ 0 nan nan 17283.6857 -1728.3686 nan 110.00%
0+ 0 nan nan -89.3561 -1728.3686 nan ---
0 0 -92.8995 6 -89.3561 -92.8995 83 3.97%
0 0 -92.8995 2 -89.3561 Fract:4 86 3.97%
0+ 0 nan nan -92.7479 -92.8995 nan 0.16%
0 0 -92.8885 11 -92.7479 Fract:1 98 0.15%
0+ 0 nan nan -92.8162 -92.8885 nan 0.08%
0 0 -92.8540 2 -92.8162 Fract:1 112 0.04%
0 0 -92.8463 2 -92.8162 Fract:1 119 0.03%
0 0 -92.8324 2 -92.8162 Fract:1 124 0.02%
0 0 cutoff -92.8162 -92.8324 129 0.02% 0
CPXPARAM_MIP_Cuts_FlowCovers-Gomory:FlowCovers 0
CPXPARAM_MIP_Cuts_FlowCovers-Gomory:Gomory 4
7
Node Left Objective IInf Best_Integer Best_Bound ItCnt Gap
0+ 0 nan nan 18737.7240 -1873.9213 nan 110.00%
0+ 0 nan nan -349.2878 -1873.9213 nan 436.50%
0 0 -476.7132 19 -349.2878 -476.7132 92 36.48%
0+ 0 nan nan -351.7851 -476.7132 nan 35.51%
0 0 -476.0450 19 -351.7851 Cuts:11 121 35.32%
0 0 -475.6297 22 -351.7851 Fract:5 134 35.20%
0 0 -475.5084 22 -351.7851 Fract:3 139 35.17%
0 0 -475.4910 23 -351.7851 Fract:3 142 35.17%
0 0 -475.4531 23 -351.7851 Fract:4 153 35.15%
0 0 -475.3841 24 -351.7851 Fract:1 159 35.13%
0 0 -475.2521 22 -351.7851 Fract:1 166 35.10%
0+ 0 nan nan -467.2359 -475.2521 nan 1.72%
0+ 0 nan nan -468.0342 -475.2521 nan 1.54%
0 2 -475.2521 21 -468.0342 -475.2332 166 1.54%
CPXPARAM_MIP_Cuts_FlowCovers-Gomory:FlowCovers 0
CPXPARAM_MIP_Cuts_FlowCovers-Gomory:Gomory 10
8
Node Left Objective IInf Best_Integer Best_Bound ItCnt Gap
0+ 0 nan nan 20324.0135 -2032.4014 nan 110.00%
0+ 0 nan nan -89.4132 -2032.4014 nan ---
0 0 -103.1383 11 -89.4132 -103.1383 78 15.35%
0 0 -102.3893 10 -89.4132 Cuts:12 92 14.51%
0+ 0 nan nan -100.8155 -102.3893 nan 1.56%
0 0 -102.3368 11 -100.8155 Fract:5 102 1.51%
0+ 0 nan nan -102.0140 -102.3368 nan 0.32%
0 0 -102.3207 10 -102.0140 Fract:1 108 0.30%
0 0 -102.3175 10 -102.0140 Fract:1 112 0.30%
0 0 -102.3154 7 -102.0140 Fract:1 114 0.30%
0 2 -102.2100 4 -102.0140 -102.2074 114 0.19%
CPXPARAM_MIP_Cuts_FlowCovers-Gomory:FlowCovers 0
CPXPARAM_MIP_Cuts_FlowCovers-Gomory:Gomory 7
9
Node Left Objective IInf Best_Integer Best_Bound ItCnt Gap
0+ 0 nan nan 19574.3912 -1957.4391 nan 110.00%
0+ 0 nan nan -340.7562 -1957.4391 nan 474.44%
0 0 -481.4397 15 -340.7562 -481.4397 75 41.29%
0+ 0 nan nan -474.2321 -481.4397 nan 1.52%
0 0 -480.5569 16 -474.2321 Cuts:14 94 1.33%
0 0 -480.3203 13 -474.2321 Cuts:13 111 1.28%
0+ 0 nan nan -474.3320 -480.3203 nan 1.26%
0 0 -480.1751 17 -474.3320 Cuts:12 127 1.23%
0+ 0 nan nan -474.6302 -480.1751 nan 1.17%
0 0 -479.8498 18 -474.6302 Fract:10 139 1.10%
0 0 -479.7415 17 -474.6302 Fract:9 150 1.08%
0 2 -479.7415 17 -474.6302 -479.7293 150 1.07%
CPXPARAM_MIP_Cuts_FlowCovers-Gomory:FlowCovers 0
CPXPARAM_MIP_Cuts_FlowCovers-Gomory:Gomory 11
10
Node Left Objective IInf Best_Integer Best_Bound ItCnt Gap
0+ 0 nan nan 27187.3215 -2718.7321 nan 110.00%
0+ 0 nan nan 10.9576 -2718.7321 nan ---
0 0 -173.4759 5 10.9576 -173.4759 75 ---
0+ 0 nan nan 7.7729 -173.4759 nan ---
0+ 0 nan nan -171.3795 -173.4759 nan 1.22%
0 0 -173.4759 3 -171.3795 Fract:4 81 1.22%
0 0 -173.4759 8 -171.3795 Fract:3 92 1.22%
0 0 -173.4759 4 -171.3795 Fract:6 102 1.22%
0 0 -173.4759 4 -171.3795 Fract:2 108 1.22%
0 2 -173.4759 4 -171.3795 -173.4759 108 1.22%
CPXPARAM_MIP_Cuts_FlowCovers-Gomory:FlowCovers 0
CPXPARAM_MIP_Cuts_FlowCovers-Gomory:Gomory 13
11
Node Left Objective IInf Best_Integer Best_Bound ItCnt Gap
0+ 0 nan nan 22470.7077 -2247.0708 nan 110.00%
0+ 0 nan nan -339.2451 -2247.0708 nan 562.37%
0 0 -573.6242 10 -339.2451 -573.6242 79 69.09%
0+ 0 nan nan -570.2156 -573.6242 nan 0.60%
0 0 -573.6242 13 -570.2156 Fract:3 93 0.60%
0 0 -573.5316 18 -570.2156 Fract:11 112 0.58%
0 0 -573.4097 18 -570.2156 Fract:3 126 0.56%
0 0 -573.2651 17 -570.2156 Fract:3 136 0.53%
0 0 -573.2282 18 -570.2156 Fract:3 142 0.53%
0 0 -573.2176 21 -570.2156 Fract:2 146 0.53%
0 2 -572.9410 8 -570.2156 -572.8578 146 0.46%
CPXPARAM_MIP_Cuts_FlowCovers-Gomory:FlowCovers 0
CPXPARAM_MIP_Cuts_FlowCovers-Gomory:Gomory 11
12
Node Left Objective IInf Best_Integer Best_Bound ItCnt Gap
0+ 0 nan nan 21290.0070 -2129.0007 nan 110.00%
0+ 0 nan nan -108.2542 -2129.0007 nan ---
0 0 -125.5769 9 -108.2542 -125.5769 93 16.00%
0+ 0 nan nan -118.3639 -125.5769 nan 6.09%
0 0 -124.7999 10 -118.3639 Cuts:8 107 5.44%
0 0 -124.3182 13 -118.3639 Cuts:10 119 5.03%
0 0 -124.0318 11 -118.3639 Fract:9 130 4.79%
0+ 0 nan nan -121.2111 -124.0318 nan 2.33%
0 0 -123.9842 12 -121.2111 Fract:7 141 2.29%
0 0 -123.9245 13 -121.2111 Fract:7 151 2.24%
0 2 -123.6665 8 -121.2111 -123.5078 151 1.89%
CPXPARAM_MIP_Cuts_FlowCovers-Gomory:FlowCovers 0
CPXPARAM_MIP_Cuts_FlowCovers-Gomory:Gomory 9
13
Node Left Objective IInf Best_Integer Best_Bound ItCnt Gap
0+ 0 nan nan 18711.1828 -1871.1183 nan 110.00%
0+ 0 nan nan -86.7463 -1871.1183 nan ---
0 0 -468.4244 16 -86.7463 -468.4244 90 439.99%
0+ 0 nan nan -462.1230 -468.4244 nan 1.36%
0 0 -468.0134 20 -462.1230 Cuts:14 108 1.27%
0 0 -467.6555 18 -462.1230 Cuts:20 132 1.20%
0 0 -467.4457 22 -462.1230 Fract:10 152 1.15%
0+ 0 nan nan -462.3653 -467.4457 nan 1.10%
0 0 -467.4217 23 -462.3653 Cuts:12 162 1.09%
0 0 -467.3514 18 -462.3653 Cuts:7 185 1.08%
0 0 -467.3407 19 -462.3653 Flowcuts:2 191 1.08%
0 2 -467.3407 13 -462.3653 -467.3285 191 1.07%
CPXPARAM_MIP_Cuts_FlowCovers-Gomory:FlowCovers 3
CPXPARAM_MIP_Cuts_FlowCovers-Gomory:Gomory 3
14
Node Left Objective IInf Best_Integer Best_Bound ItCnt Gap
0+ 0 nan nan 22739.1838 -2273.9184 nan 110.00%
0+ 0 nan nan -144.2844 -2273.9184 nan ---
0 0 -146.9071 10 -144.2844 -146.9071 80 1.82%
0 0 -146.8581 6 -144.2844 Cuts:6 85 1.78%
0 0 -146.7191 8 -144.2844 Cuts:7 95 1.69%
0 0 -146.6955 7 -144.2844 Cuts:8 113 1.67%
0+ 0 nan nan -145.9432 -146.6955 nan 0.52%
0 0 -146.6955 3 -145.9432 Fract:4 119 0.52%
0 0 -146.6955 2 -145.9432 Cuts:3 122 0.52%
0 0 0 -146.6955 Cuts:2 123 0.00%
0 0 cutoff -146.6955 -146.6955 123 0.00% 0
CPXPARAM_MIP_Cuts_FlowCovers-Gomory:FlowCovers 0
CPXPARAM_MIP_Cuts_FlowCovers-Gomory:Gomory 13
15
Node Left Objective IInf Best_Integer Best_Bound ItCnt Gap
0+ 0 nan nan 20293.1236 -2029.3124 nan 110.00%
0+ 0 nan nan -243.7454 -2029.3124 nan 732.55%
0 0 -518.7322 13 -243.7454 -518.7322 83 112.82%
0+ 0 nan nan -315.8010 -518.7322 nan 64.26%
0+ 0 nan nan -450.6273 -518.7322 nan 15.11%
0 0 -518.6328 19 -450.6273 Fract:13 111 15.09%
0 0 -518.5713 18 -450.6273 Fract:2 113 15.08%
0 0 -518.5244 18 -450.6273 Fract:4 119 15.07%
0 0 -518.4912 19 -450.6273 Fract:3 125 15.06%
0 0 -518.4612 19 -450.6273 Fract:3 133 15.05%
0 0 -518.4414 19 -450.6273 Fract:1 135 15.05%
0 0 -518.4272 18 -450.6273 Fract:1 139 15.05%
0+ 0 nan nan -513.2509 -518.4272 nan 1.01%
0+ 0 nan nan -514.2581 -518.4272 nan 0.81%
0 2 -518.3688 12 -514.2581 -518.3560 139 0.80%
CPXPARAM_MIP_Cuts_FlowCovers-Gomory:FlowCovers 0
CPXPARAM_MIP_Cuts_FlowCovers-Gomory:Gomory 15
16
Node Left Objective IInf Best_Integer Best_Bound ItCnt Gap
0+ 0 nan nan 21872.1954 -2187.2195 nan 110.00%
0+ 0 nan nan -112.2220 -2187.2195 nan ---
0 0 -126.4787 11 -112.2220 -126.4787 89 12.70%
0 0 -126.1346 12 -112.2220 Fract:10 102 12.40%
0+ 0 nan nan -124.3570 -126.1346 nan 1.43%
0 0 -126.0664 14 -124.3570 Fract:5 111 1.37%
0 0 -125.8659 14 -124.3570 Fract:4 120 1.21%
0 0 -125.8379 14 -124.3570 Fract:3 133 1.19%
0 0 -125.7925 12 -124.3570 Fract:3 142 1.15%
0 0 -125.7873 13 -124.3570 Fract:1 147 1.15%
0 2 -125.7873 12 -124.3570 -125.7838 147 1.15%
CPXPARAM_MIP_Cuts_FlowCovers-Gomory:FlowCovers 0
CPXPARAM_MIP_Cuts_FlowCovers-Gomory:Gomory 5
17
Node Left Objective IInf Best_Integer Best_Bound ItCnt Gap
0+ 0 nan nan 16639.6111 -1663.9611 nan 110.00%
0+ 0 nan nan -399.5270 -1663.9611 nan 316.48%
0 0 -404.1656 14 -399.5270 -404.1656 83 1.16%
0 0 -403.5458 13 -399.5270 Fract:12 99 1.01%
0 0 -403.3135 15 -399.5270 Fract:10 114 0.95%
0+ 0 nan nan -400.1632 -403.3135 nan 0.79%
0 0 -403.2058 14 -400.1632 Fract:8 127 0.76%
0 0 -403.1629 18 -400.1632 Fract:7 145 0.75%
0 0 -403.1415 17 -400.1632 Fract:10 156 0.74%
0 0 -403.0476 17 -400.1632 Fract:7 171 0.72%
0+ 0 nan nan -400.7366 -403.0476 nan 0.58%
0+ 0 nan nan -401.6537 -403.0476 nan 0.35%
0 2 -403.0211 10 -401.6537 -402.9932 171 0.33%
CPXPARAM_MIP_Cuts_FlowCovers-Gomory:FlowCovers 0
CPXPARAM_MIP_Cuts_FlowCovers-Gomory:Gomory 14
18
Node Left Objective IInf Best_Integer Best_Bound ItCnt Gap
0+ 0 nan nan 18821.9021 -1882.1902 nan 110.00%
0+ 0 nan nan -97.2991 -1882.1902 nan ---
0 0 -99.0172 8 -97.2991 -99.0172 77 1.77%
0 0 -99.0172 6 -97.2991 Fract:8 90 1.77%
0 0 -99.0161 13 -97.2991 Fract:6 99 1.76%
0 0 -99.0085 6 -97.2991 Fract:3 105 1.76%
0+ 0 nan nan -98.9690 -99.0085 nan 0.04%
0 0 -99.0014 2 -98.9690 Fract:1 109 0.03%
0+ 0 nan nan -98.9995 -99.0014 nan 0.00%
CPXPARAM_MIP_Cuts_FlowCovers-Gomory:FlowCovers 0
CPXPARAM_MIP_Cuts_FlowCovers-Gomory:Gomory 8
19
Node Left Objective IInf Best_Integer Best_Bound ItCnt Gap
0+ 0 nan nan 19012.1137 -1901.2740 nan 110.00%
0+ 0 nan nan -411.3325 -1901.2740 nan 362.22%
0 0 -474.7865 8 -411.3325 -474.7865 76 15.43%
0+ 0 nan nan -411.4107 -474.7865 nan 15.40%
0+ 0 nan nan -472.5175 -474.7865 nan 0.48%
0 0 -474.7865 5 -472.5175 Fract:6 90 0.48%
0+ 0 nan nan -473.4153 -474.7865 nan 0.29%
0 0 -474.7865 5 -473.4153 Fract:3 99 0.29%
0 0 -474.7815 6 -473.4153 Fract:3 104 0.29%
0+ 0 nan nan -474.7791 -474.7815 nan 0.00%
CPXPARAM_MIP_Cuts_FlowCovers-Gomory:FlowCovers 0
CPXPARAM_MIP_Cuts_FlowCovers-Gomory:Gomory 11
20
Node Left Objective IInf Best_Integer Best_Bound ItCnt Gap
0+ 0 nan nan 15115.0246 -1511.5025 nan 110.00%
0+ 0 nan nan -66.4447 -1511.5025 nan ---
0 0 -90.2455 12 -66.4447 -90.2455 91 35.82%
0 0 -89.5539 13 -66.4447 Cuts:14 104 34.78%
0+ 0 nan nan -88.1244 -89.5539 nan 1.62%
0 0 -89.2225 11 -88.1244 Cuts:8 113 1.25%
0 0 -89.0523 12 -88.1244 Cuts:5 123 1.05%
0 0 -88.9619 8 -88.1244 Cuts:9 134 0.95%
0 0 -88.8655 7 -88.1244 Cuts:8 143 0.84%
0 0 cutoff -88.1244 -88.8655 145 0.84% 0
CPXPARAM_MIP_Cuts_FlowCovers-Gomory:FlowCovers 3
CPXPARAM_MIP_Cuts_FlowCovers-Gomory:Gomory 6
21
Node Left Objective IInf Best_Integer Best_Bound ItCnt Gap
0+ 0 nan nan 15333.4248 -1533.3425 nan 110.00%
0+ 0 nan nan -221.9629 -1533.3425 nan 590.81%
0 0 -397.2126 26 -221.9629 -397.2126 110 78.95%
0+ 0 nan nan -235.8252 -397.2126 nan 68.44%
0 0 -395.6249 29 -235.8252 Cuts:7 125 67.76%
0 0 -395.0269 27 -235.8252 Cuts:10 139 67.51%
0+ 0 nan nan -238.2770 -395.0269 nan 65.78%
0 0 -394.5471 26 -238.2770 Cuts:11 157 65.58%
0 0 -394.2076 25 -238.2770 Cuts:7 172 65.44%
0+ 0 nan nan -287.3368 -394.2076 nan 37.19%
0 0 -393.9875 25 -287.3368 Cuts:8 184 37.12%
0 0 -393.9413 28 -287.3368 Cuts:5 195 37.10%
0 0 -393.9112 28 -287.3368 Flowcuts:4 201 37.09%
0 0 -393.9039 31 -287.3368 Flowcuts:4 206 37.09%
0 0 -393.9039 30 -287.3368 Flowcuts:1 207 37.09%
0+ 0 nan nan -384.3452 -393.9039 nan 2.49%
0 2 -393.9021 30 -384.3452 -393.8842 207 2.48%
CPXPARAM_MIP_Cuts_FlowCovers-Gomory:FlowCovers 12
CPXPARAM_MIP_Cuts_FlowCovers-Gomory:Gomory 8
22
Node Left Objective IInf Best_Integer Best_Bound ItCnt Gap
0+ 0 nan nan 15579.5689 -1557.9569 nan 110.00%
0+ 0 nan nan -75.9857 -1557.9569 nan ---
0 0 -96.9770 4 -75.9857 -96.9770 80 27.63%
0+ 0 nan nan -96.9770 -96.9770 nan 0.00%
0 0 cutoff -96.9770 -96.9770 80 0.00% 0
CPXPARAM_MIP_Cuts_FlowCovers-Gomory:FlowCovers 0
CPXPARAM_MIP_Cuts_FlowCovers-Gomory:Gomory 0
23
Node Left Objective IInf Best_Integer Best_Bound ItCnt Gap
0+ 0 nan nan 16097.8588 -1609.8715 nan 110.00%
0+ 0 nan nan -135.1706 -1609.8715 nan ---
0 0 -420.0439 21 -135.1706 -420.0439 92 210.75%
0+ 0 nan nan -205.3944 -420.0439 nan 104.51%
0+ 0 nan nan -308.1357 -420.0439 nan 36.32%
0 0 -418.6918 22 -308.1357 Fract:4 101 35.88%
0+ 0 nan nan -308.2577 -418.6918 nan 35.83%
0 0 -417.4915 18 -308.2577 Fract:4 116 35.44%
0 0 -416.7930 22 -308.2577 Cuts:15 139 35.21%
0+ 0 nan nan -308.4428 -416.7930 nan 35.13%
0 0 -416.3212 25 -308.4428 Cuts:12 158 34.98%
0 0 -416.1135 22 -308.4428 Cuts:4 175 34.91%
0 0 -416.1031 25 -308.4428 Cuts:5 183 34.90%
0 0 -415.9031 23 -308.4428 Cuts:5 197 34.84%
0 0 -415.7569 24 -308.4428 Cuts:8 211 34.79%
0 0 -415.7516 24 -308.4428 Cuts:2 221 34.79%
0+ 0 nan nan -407.4230 -415.7516 nan 2.04%
0+ 0 nan nan -408.6234 -415.7516 nan 1.74%
0 2 -415.7516 24 -408.6234 -415.7442 221 1.74%
CPXPARAM_MIP_Cuts_FlowCovers-Gomory:FlowCovers 7
CPXPARAM_MIP_Cuts_FlowCovers-Gomory:Gomory 10
24
Node Left Objective IInf Best_Integer Best_Bound ItCnt Gap
0+ 0 nan nan 18436.4445 -1843.6444 nan 110.00%
0+ 0 nan nan -94.2493 -1843.6444 nan ---
0 0 -115.3546 13 -94.2493 -115.3546 85 22.39%
0+ 0 nan nan -112.0044 -115.3546 nan 2.99%
0 0 -114.5760 7 -112.0044 Cuts:7 90 2.30%
0 0 -114.3614 7 -112.0044 Cuts:7 99 2.10%
0 0 -114.2930 8 -112.0044 Fract:3 107 2.04%
0 0 -114.1181 9 -112.0044 Fract:5 117 1.89%
0 0 -113.9337 8 -112.0044 Fract:6 126 1.72%
0 2 -113.4480 4 -112.0044 -113.3400 126 1.19%
CPXPARAM_MIP_Cuts_FlowCovers-Gomory:FlowCovers 0
CPXPARAM_MIP_Cuts_FlowCovers-Gomory:Gomory 7
25
Node Left Objective IInf Best_Integer Best_Bound ItCnt Gap
0+ 0 nan nan 18806.7169 -1880.6717 nan 110.00%
0+ 0 nan nan -288.0183 -1880.6717 nan 552.97%
0 0 -492.8236 25 -288.0183 -492.8236 100 71.11%
0+ 0 nan nan -362.9258 -492.8236 nan 35.79%
0 0 -490.2613 27 -362.9258 Cuts:14 123 35.09%
0 0 -490.1050 27 -362.9258 Cuts:7 137 35.04%
0 0 -489.5064 26 -362.9258 Fract:4 153 34.88%
0 0 -489.3374 31 -362.9258 Cuts:8 170 34.83%
0 0 -489.2744 30 -362.9258 Cuts:4 179 34.81%
0 0 -489.2705 30 -362.9258 Flowcuts:1 181 34.81%
0+ 0 nan nan -476.9017 -489.2705 nan 2.59%
0+ 0 nan nan -478.7286 -489.2705 nan 2.20%
0 2 -489.2705 30 -478.7286 -489.2621 181 2.20%
CPXPARAM_MIP_Cuts_FlowCovers-Gomory:FlowCovers 4
CPXPARAM_MIP_Cuts_FlowCovers-Gomory:Gomory 12
26
Node Left Objective IInf Best_Integer Best_Bound ItCnt Gap
0+ 0 nan nan 18555.8907 -1855.7233 nan 110.00%
0+ 0 nan nan -104.0034 -1855.7233 nan ---
0 0 -115.9815 5 -104.0034 -115.9815 67 11.52%
0+ 0 nan nan -115.9815 -115.9815 nan 0.00%
0 0 cutoff -115.9815 -115.9815 67 0.00% 0
CPXPARAM_MIP_Cuts_FlowCovers-Gomory:FlowCovers 0
CPXPARAM_MIP_Cuts_FlowCovers-Gomory:Gomory 0
27
Node Left Objective IInf Best_Integer Best_Bound ItCnt Gap
0+ 0 nan nan 17101.2086 -1710.7893 nan 110.00%
0+ 0 nan nan -257.8104 -1710.7893 nan 563.58%
0 0 -441.6815 19 -257.8104 -441.6815 93 71.32%
0+ 0 nan nan -327.4274 -441.6815 nan 34.89%
0 0 -439.8654 19 -327.4274 Fract:4 109 34.34%
0+ 0 nan nan -327.5556 -439.8654 nan 34.29%
0 0 -439.1539 21 -327.5556 Cuts:9 121 34.07%
0 0 -438.6730 20 -327.5556 Fract:6 149 33.92%
0 0 -438.6540 19 -327.5556 Fract:4 154 33.92%
0 0 -438.6123 26 -327.5556 Cuts:3 169 33.90%
0+ 0 nan nan -376.1524 -438.6123 nan 16.60%
0 0 -438.4415 25 -376.1524 Cuts:7 198 16.56%
0+ 0 nan nan -378.2245 -438.4415 nan 15.92%
0 0 -438.4341 24 -378.2245 Cuts:2 204 15.92%
0+ 0 nan nan -431.3875 -438.4341 nan 1.63%
0+ 0 nan nan -432.6631 -438.4341 nan 1.33%
0 2 -438.4341 24 -432.6631 -438.4196 204 1.33%
CPXPARAM_MIP_Cuts_FlowCovers-Gomory:FlowCovers 3
CPXPARAM_MIP_Cuts_FlowCovers-Gomory:Gomory 6
28
Node Left Objective IInf Best_Integer Best_Bound ItCnt Gap
0+ 0 nan nan 23195.9038 -2319.5904 nan 110.00%
0+ 0 nan nan -104.6712 -2319.5904 nan ---
0 0 -120.0533 11 -104.6712 -120.0533 77 14.70%
0 0 -119.2658 11 -104.6712 Cuts:11 88 13.94%
0+ 0 nan nan -115.2003 -119.2658 nan 3.53%
0 0 -119.1585 11 -115.2003 Fract:7 97 3.44%
0+ 0 nan nan -117.2287 -119.1585 nan 1.65%
0 0 -119.0467 10 -117.2287 Fract:6 108 1.55%
0 0 -118.9358 10 -117.2287 Fract:3 117 1.46%
0 0 -118.9295 11 -117.2287 Fract:2 121 1.45%
0 0 -118.9139 9 -117.2287 Fract:6 133 1.44%
0 2 -118.8528 5 -117.2287 -118.8278 133 1.36%
CPXPARAM_MIP_Cuts_FlowCovers-Gomory:FlowCovers 0
CPXPARAM_MIP_Cuts_FlowCovers-Gomory:Gomory 7
29
Node Left Objective IInf Best_Integer Best_Bound ItCnt Gap
0+ 0 nan nan 18473.6572 -1847.3657 nan 110.00%
0+ 0 nan nan -427.6235 -1847.3657 nan 332.01%
0 0 -444.7353 17 -427.6235 -444.7353 96 4.00%
0 0 -444.0497 19 -427.6235 Cuts:16 121 3.84%
0 0 -443.6592 23 -427.6235 Cuts:21 141 3.75%
0 0 -443.5904 24 -427.6235 Cuts:15 152 3.73%
0 0 -443.4855 25 -427.6235 Cuts:11 164 3.71%
0 0 -443.4459 25 -427.6235 Cuts:10 176 3.70%
0 0 -443.4448 25 -427.6235 Flowcuts:2 179 3.70%
0+ 0 nan nan -441.1471 -443.4448 nan 0.52%
0 2 -443.3723 6 -441.1471 -443.3419 179 0.50%
CPXPARAM_MIP_Cuts_FlowCovers-Gomory:FlowCovers 2
CPXPARAM_MIP_Cuts_FlowCovers-Gomory:Gomory 6
30
Node Left Objective IInf Best_Integer Best_Bound ItCnt Gap
0+ 0 nan nan 20012.4297 -2001.2537 nan 110.00%
0+ 0 nan nan -82.7793 -2001.2537 nan ---
0 0 -93.4019 2 -82.7793 -93.4019 66 12.83%
0+ 0 nan nan -93.4019 -93.4019 nan 0.00%
CPXPARAM_MIP_Cuts_FlowCovers-Gomory:FlowCovers 0
CPXPARAM_MIP_Cuts_FlowCovers-Gomory:Gomory 0
31
Node Left Objective IInf Best_Integer Best_Bound ItCnt Gap
0+ 0 nan nan 20469.5526 -2046.9553 nan 110.00%
0+ 0 nan nan -497.9458 -2046.9553 nan 311.08%
0 0 -506.7396 12 -497.9458 -506.7396 92 1.77%
0+ 0 nan nan -501.8232 -506.7396 nan 0.98%
0 0 -506.7114 5 -501.8232 Fract:2 104 0.97%
0+ 0 nan nan -506.6867 -506.7114 nan 0.00%
CPXPARAM_MIP_Cuts_FlowCovers-Gomory:FlowCovers 0
CPXPARAM_MIP_Cuts_FlowCovers-Gomory:Gomory 2
32
Node Left Objective IInf Best_Integer Best_Bound ItCnt Gap
0+ 0 nan nan 13911.0729 -1391.1073 nan 110.00%
0+ 0 nan nan -39.6136 -1391.1073 nan ---
0 0 -68.2827 6 -39.6136 -68.2827 77 72.37%
0+ 0 nan nan -65.9578 -68.2827 nan 3.52%
0 0 -66.4980 6 -65.9578 Fract:1 86 0.82%
0 0 cutoff -65.9578 99 0.00% 0 0
CPXPARAM_MIP_Cuts_FlowCovers-Gomory:FlowCovers 0
CPXPARAM_MIP_Cuts_FlowCovers-Gomory:Gomory 0
33
Node Left Objective IInf Best_Integer Best_Bound ItCnt Gap
0+ 0 nan nan 16748.4512 -1674.8451 nan 110.00%
0+ 0 nan nan -180.4833 -1674.8451 nan 827.98%
0 0 -425.8102 14 -180.4833 -425.8102 120 135.93%
0+ 0 nan nan -362.2668 -425.8102 nan 17.54%
0 0 -425.0203 22 -362.2668 Fract:10 144 17.32%
0 0 -424.8278 26 -362.2668 Fract:14 168 17.27%
0 0 -424.4922 26 -362.2668 Fract:5 181 17.18%
0+ 0 nan nan -363.5477 -424.4922 nan 16.76%
0 0 -424.2876 29 -363.5477 Fract:24 210 16.71%
0 0 -424.1851 29 -363.5477 Fract:5 224 16.68%
0 0 -424.1459 29 -363.5477 Cuts:4 236 16.67%
0 0 -424.1445 29 -363.5477 Flowcuts:1 239 16.67%
0+ 0 nan nan -363.6035 -424.1445 nan 16.65%
0 0 -424.1443 29 -363.6035 Flowcuts:1 240 16.65%
0+ 0 nan nan -416.3597 -424.1443 nan 1.87%
0 2 -424.1440 28 -416.3597 -424.1354 240 1.87%
CPXPARAM_MIP_Cuts_FlowCovers-Gomory:FlowCovers 3
CPXPARAM_MIP_Cuts_FlowCovers-Gomory:Gomory 20
34
Node Left Objective IInf Best_Integer Best_Bound ItCnt Gap
0+ 0 nan nan 19055.0102 -1905.5010 nan 110.00%
0+ 0 nan nan -113.0294 -1905.5010 nan ---
0 0 -121.1718 5 -113.0294 -121.1718 75 7.20%
0+ 0 nan nan -117.8797 -121.1718 nan 2.79%
0 0 -121.1718 10 -117.8797 Fract:5 92 2.79%
0+ 0 nan nan -119.8794 -121.1718 nan 1.08%
0 0 -121.1551 11 -119.8794 Fract:3 104 1.06%
0 0 -121.0629 12 -119.8794 Cuts:6 111 0.99%
0+ 0 nan nan -120.8524 -121.0629 nan 0.17%
0 0 -121.0138 3 -120.8524 Fract:1 122 0.13%
0+ 0 nan nan -120.8524 -121.0138 nan 0.13%
0 0 -121.0138 3 -120.8524 -121.0138 200 0.13%
0 0 -120.8953 2 -120.8524 Fract:2 204 0.04%
0 0 cutoff -120.8524 208 0.00% 0 0
CPXPARAM_MIP_Cuts_FlowCovers-Gomory:FlowCovers 0
CPXPARAM_MIP_Cuts_FlowCovers-Gomory:Gomory 2
35
Node Left Objective IInf Best_Integer Best_Bound ItCnt Gap
0+ 0 nan nan 16780.9114 -1678.3241 nan 110.00%
0+ 0 nan nan -187.6361 -1678.3241 nan 794.46%
0 0 -420.9670 14 -187.6361 -420.9670 75 124.35%
0+ 0 nan nan -253.1346 -420.9670 nan 66.30%
0+ 0 nan nan -417.9530 -420.9670 nan 0.72%
0 0 -420.8922 17 -417.9530 Fract:5 101 0.70%
0 0 -420.5560 20 -417.9530 Fract:5 115 0.62%
0 0 -420.3742 18 -417.9530 Fract:5 122 0.58%
0 0 -420.2310 15 -417.9530 Fract:4 134 0.55%
0 0 -420.1967 18 -417.9530 Fract:7 145 0.54%
0+ 0 nan nan -417.9530 -420.1967 nan 0.54%
0 0 -418.0058 3 -417.9530 -418.0058 195 0.01%
0 0 cutoff -417.9530 200 0.00% 0 0
CPXPARAM_MIP_Cuts_FlowCovers-Gomory:FlowCovers 0
CPXPARAM_MIP_Cuts_FlowCovers-Gomory:Gomory 13
36
Node Left Objective IInf Best_Integer Best_Bound ItCnt Gap
0+ 0 nan nan 22941.7465 -2294.1747 nan 110.00%
0+ 0 nan nan -123.5349 -2294.1747 nan ---
0 0 -146.5944 12 -123.5349 -146.5944 96 18.67%
0 0 -145.3470 6 -123.5349 Fract:6 109 17.66%
0+ 0 nan nan -140.1787 -145.3470 nan 3.69%
0 0 -145.0145 6 -140.1787 Fract:3 114 3.45%
0 0 -144.3906 7 -140.1787 Fract:3 131 3.00%
0 0 -144.0482 5 -140.1787 Fract:2 140 2.76%
0 0 -143.9347 6 -140.1787 Fract:5 151 2.68%
0 2 -143.7662 5 -140.1787 -143.7167 151 2.52%
CPXPARAM_MIP_Cuts_FlowCovers-Gomory:FlowCovers 0
CPXPARAM_MIP_Cuts_FlowCovers-Gomory:Gomory 7
37
Node Left Objective IInf Best_Integer Best_Bound ItCnt Gap
0+ 0 nan nan 22253.7712 -2225.3771 nan 110.00%
0+ 0 nan nan -192.7597 -2225.3771 nan ---
0 0 -583.6149 25 -192.7597 -583.6149 103 202.77%
0+ 0 nan nan -350.5396 -583.6149 nan 66.49%
0 0 -581.8257 25 -350.5396 Fract:7 119 65.98%
0 0 -580.4073 28 -350.5396 Fract:8 136 65.58%
0 0 -579.4310 24 -350.5396 Fract:3 146 65.30%
0 0 -579.0639 25 -350.5396 Fract:5 160 65.19%
0+ 0 nan nan -355.1572 -579.0639 nan 63.04%
0 0 -578.8636 24 -355.1572 Fract:3 172 62.99%
0 0 -578.8134 26 -355.1572 Fract:2 178 62.97%
0+ 0 nan nan -491.9491 -578.8134 nan 17.66%
0+ 0 nan nan -561.9389 -578.8134 nan 3.00%
0+ 0 nan nan -564.1013 -578.8134 nan 2.61%
0 2 -578.8134 26 -564.1013 -578.8125 178 2.61%
CPXPARAM_MIP_Cuts_FlowCovers-Gomory:FlowCovers 0
CPXPARAM_MIP_Cuts_FlowCovers-Gomory:Gomory 9
38
Node Left Objective IInf Best_Integer Best_Bound ItCnt Gap
0+ 0 nan nan 19121.8104 -1912.4176 nan 110.00%
0+ 0 nan nan -95.8861 -1912.4176 nan ---
0 0 -109.3384 7 -95.8861 -109.3384 75 14.03%
0+ 0 nan nan -109.3384 -109.3384 nan 0.00%
0 0 cutoff -109.3384 -109.3384 75 0.00% 0
CPXPARAM_MIP_Cuts_FlowCovers-Gomory:FlowCovers 0
CPXPARAM_MIP_Cuts_FlowCovers-Gomory:Gomory 0
39
Node Left Objective IInf Best_Integer Best_Bound ItCnt Gap
0+ 0 nan nan 22617.4474 -2261.8298 nan 110.00%
0+ 0 nan nan -361.4650 -2261.8298 nan 525.74%
0 0 -588.7435 24 -361.4650 -588.7435 97 62.88%
0+ 0 nan nan -434.4180 -588.7435 nan 35.52%
0 0 -586.7701 21 -434.4180 Fract:6 116 35.07%
0 0 -586.0450 21 -434.4180 Fract:4 126 34.90%
0 0 -585.6470 21 -434.4180 Fract:4 140 34.81%
0 0 -584.9461 25 -434.4180 Fract:5 156 34.65%
0 0 -584.7870 22 -434.4180 Fract:3 170 34.61%
0 0 -584.6746 22 -434.4180 Fract:1 175 34.59%
0+ 0 nan nan -573.8440 -584.6746 nan 1.89%
0+ 0 nan nan -574.3909 -584.6746 nan 1.79%
0+ 0 nan nan -576.3586 -584.6746 nan 1.44%
0 2 -584.6746 22 -576.3586 -584.6149 175 1.43%
CPXPARAM_MIP_Cuts_FlowCovers-Gomory:FlowCovers 0
CPXPARAM_MIP_Cuts_FlowCovers-Gomory:Gomory 10
